MAX
0.0001z1 + 0.0001z2 + 0.0001z3 + 0.0001z4 + z5
SUBJECT TO
x1_1 + x1_2 + x1_3 + x1_4 + x1_5 + x1_6 + x1_7 + x1_8 + x1_9 + x1_10 = 1
x2_1 + x2_2 + x2_3 + x2_4 + x2_5 + x2_6 + x2_7 + x2_8 + x2_9 + x2_10 = 1
x3_1 + x3_2 + x3_3 + x3_4 + x3_5 + x3_6 + x3_7 + x3_8 + x3_9 + x3_10 = 1
x4_1 + x4_2 + x4_3 + x4_4 + x4_5 + x4_6 + x4_7 + x4_8 + x4_9 + x4_10 = 1
x5_1 + x5_2 + x5_3 + x5_4 + x5_5 + x5_6 + x5_7 + x5_8 + x5_9 + x5_10 = 1
x6_1 + x6_2 + x6_3 + x6_4 + x6_5 + x6_6 + x6_7 + x6_8 + x6_9 + x6_10 = 1
x7_1 + x7_2 + x7_3 + x7_4 + x7_5 + x7_6 + x7_7 + x7_8 + x7_9 + x7_10 = 1
x8_1 + x8_2 + x8_3 + x8_4 + x8_5 + x8_6 + x8_7 + x8_8 + x8_9 + x8_10 = 1
x9_1 + x9_2 + x9_3 + x9_4 + x9_5 + x9_6 + x9_7 + x9_8 + x9_9 + x9_10 = 1
x10_1 + x10_2 + x10_3 + x10_4 + x10_5 + x10_6 + x10_7 + x10_8 + x10_9 + x10_10 = 1
x1_1 + x2_1 + x3_1 + x4_1 + x5_1 + x6_1 + x7_1 + x8_1 + x9_1 + x10_1 = 1
x1_2 + x2_2 + x3_2 + x4_2 + x5_2 + x6_2 + x7_2 + x8_2 + x9_2 + x10_2 = 1
x1_3 + x2_3 + x3_3 + x4_3 + x5_3 + x6_3 + x7_3 + x8_3 + x9_3 + x10_3 = 1
x1_4 + x2_4 + x3_4 + x4_4 + x5_4 + x6_4 + x7_4 + x8_4 + x9_4 + x10_4 = 1
x1_5 + x2_5 + x3_5 + x4_5 + x5_5 + x6_5 + x7_5 + x8_5 + x9_5 + x10_5 = 1
x1_6 + x2_6 + x3_6 + x4_6 + x5_6 + x6_6 + x7_6 + x8_6 + x9_6 + x10_6 = 1
x1_7 + x2_7 + x3_7 + x4_7 + x5_7 + x6_7 + x7_7 + x8_7 + x9_7 + x10_7 = 1
x1_8 + x2_8 + x3_8 + x4_8 + x5_8 + x6_8 + x7_8 + x8_8 + x9_8 + x10_8 = 1
x1_9 + x2_9 + x3_9 + x4_9 + x5_9 + x6_9 + x7_9 + x8_9 + x9_9 + x10_9 = 1
x1_10 + x2_10 + x3_10 + x4_10 + x5_10 + x6_10 + x7_10 + x8_10 + x9_10 + x10_10 = 1
-16x1_1-20x1_2-11x1_3-3x1_4-10x1_5-17x1_6-12x1_7-13x1_8-6x1_9-9x1_10-12x2_1-17x2_2-15x2_3-3x2_4-7x2_5-3x2_6-18x2_7-9x2_8-11x2_9-7x2_10-7x3_1-8x3_2-17x3_3-11x3_4-9x3_5-18x3_6-3x3_7-18x3_8-5x3_9-20x3_10-13x4_1-2x4_2-4x4_3-1x4_4-14x4_5-15x4_6-19x4_7-2x4_8-8x4_9-15x4_10-7x5_1-4x5_2-14x5_3-9x5_4-6x5_5-3x5_6-17x5_7-15x5_8-1x5_9-2x5_10-3x6_1-10x6_2-16x6_3-14x6_4-20x6_5-16x6_6-20x6_7-6x6_8-1x6_9-10x6_10-13x7_1-20x7_2-12x7_3-6x7_4-19x7_5-12x7_6-14x7_7-17x7_8-8x7_9-19x7_10-17x8_1-1x8_2-10x8_3-16x8_4-3x8_5-19x8_6-9x8_7-9x8_8-20x8_9-6x8_10-15x9_1-2x9_2-8x9_3-19x9_4-4x9_5-1x9_6-4x9_7-6x9_8-15x9_9-19x9_10-2x10_1-15x10_2-8x10_3-13x10_4-8x10_5-17x10_6-9x10_7-7x10_8-7x10_9-12x10_10 - z1 = 0
-4x1_1-9x1_2-14x1_3-2x1_4-3x1_5-16x1_6-19x1_7-1x1_8-10x1_9-15x1_10-11x2_1-7x2_2-10x2_3-6x2_4-14x2_5-17x2_6-7x2_7-18x2_8-17x2_9-11x2_10-11x3_1-8x3_2-12x3_3-2x3_4-18x3_5-1x3_6-18x3_7-3x3_8-20x3_9-15x3_10-14x4_1-16x4_2-9x4_3-5x4_4-7x4_5-7x4_6-3x4_7-20x4_8-13x4_9-16x4_10-13x5_1-7x5_2-16x5_3-15x5_4-14x5_5-1x5_6-20x5_7-9x5_8-9x5_9-16x5_10-12x6_1-19x6_2-8x6_3-2x6_4-17x6_5-3x6_6-10x6_7-11x6_8-7x6_9-19x6_10-17x7_1-15x7_2-8x7_3-1x7_4-1x7_5-11x7_6-1x7_7-14x7_8-14x7_9-15x7_10-11x8_1-5x8_2-7x8_3-5x8_4-12x8_5-7x8_6-13x8_7-19x8_8-12x8_9-10x8_10-19x9_1-6x9_2-19x9_3-4x9_4-9x9_5-4x9_6-12x9_7-20x9_8-14x9_9-15x9_10-15x10_1-17x10_2-12x10_3-5x10_4-12x10_5-6x10_6-18x10_7-11x10_8-13x10_9-1x10_10 - z2 = 0
-15x1_1-1x1_2-2x1_3-4x1_4-10x1_5-11x1_6-14x1_7-9x1_8-18x1_9-3x1_10-20x2_1-8x2_2-17x2_3-17x2_4-15x2_5-10x2_6-20x2_7-19x2_8-15x2_9-2x2_10-1x3_1-9x3_2-12x3_3-19x3_4-15x3_5-10x3_6-9x3_7-15x3_8-3x3_9-15x3_10-7x4_1-20x4_2-17x4_3-3x4_4-8x4_5-8x4_6-11x4_7-2x4_8-4x4_9-11x4_10-7x5_1-15x5_2-2x5_3-6x5_4-8x5_5-9x5_6-11x5_7-5x5_8-15x5_9-14x5_10-6x6_1-17x6_2-17x6_3-16x6_4-3x6_5-13x6_6-13x6_7-3x6_8-6x6_9-14x6_10-10x7_1-3x7_2-2x7_3-16x7_4-3x7_5-4x7_6-1x7_7-15x7_8-10x7_9-9x7_10-9x8_1-17x8_2-16x8_3-3x8_4-14x8_5-19x8_6-13x8_7-16x8_8-19x8_9-2x8_10-14x9_1-11x9_2-18x9_3-3x9_4-14x9_5-20x9_6-5x9_7-17x9_8-6x9_9-17x9_10-8x10_1-3x10_2-15x10_3-16x10_4-12x10_5-13x10_6-9x10_7-12x10_8-5x10_9-7x10_10 - z3 = 0
-9x1_1-15x1_2-19x1_3-3x1_4-5x1_5-15x1_6-18x1_7-13x1_8-10x1_9-3x1_10-2x2_1-16x2_2-19x2_3-5x2_4-2x2_5-5x2_6-13x2_7-13x2_8-10x2_9-5x2_10-4x3_1-7x3_2-15x3_3-6x3_4-1x3_5-6x3_6-3x3_7-15x3_8-10x3_9-4x3_10-6x4_1-10x4_2-16x4_3-6x4_4-17x4_5-13x4_6-14x4_7-9x4_8-9x4_9-17x4_10-12x5_1-15x5_2-19x5_3-8x5_4-1x5_5-15x5_6-8x5_7-9x5_8-20x5_9-17x5_10-6x6_1-2x6_2-15x6_3-17x6_4-8x6_5-8x6_6-4x6_7-14x6_8-7x6_9-15x6_10-16x7_1-1x7_2-6x7_3-3x7_4-15x7_5-15x7_6-4x7_7-15x7_8-15x7_9-13x7_10-12x8_1-9x8_2-11x8_3-1x8_4-8x8_5-4x8_6-11x8_7-12x8_8-12x8_9-14x8_10-16x9_1-6x9_2-1x9_3-9x9_4-10x9_5-18x9_6-13x9_7-12x9_8-10x9_9-14x9_10-20x10_1-4x10_2-20x10_3-10x10_4-6x10_5-20x10_6-6x10_7-7x10_8-16x10_9-12x10_10 - z4 = 0
-17x1_1-2x1_2-17x1_3-4x1_4-7x1_5-4x1_6-11x1_7-4x1_8-8x1_9-18x1_10-12x2_1-4x2_2-16x2_3-1x2_4-11x2_5-8x2_6-15x2_7-2x2_8-13x2_9-7x2_10-6x3_1-10x3_2-20x3_3-14x3_4-5x3_5-14x3_6-9x3_7-11x3_8-4x3_9-19x3_10-16x4_1-20x4_2-19x4_3-2x4_4-6x4_5-3x4_6-5x4_7-19x4_8-12x4_9-20x4_10-3x5_1-6x5_2-19x5_3-15x5_4-3x5_5-17x5_6-7x5_7-6x5_8-5x5_9-9x5_10-13x6_1-12x6_2-10x6_3-4x6_4-15x6_5-6x6_6-11x6_7-7x6_8-12x6_9-15x6_10-1x7_1-13x7_2-13x7_3-3x7_4-20x7_5-19x7_6-8x7_7-11x7_8-17x7_9-11x7_10-19x8_1-15x8_2-10x8_3-13x8_4-7x8_5-16x8_6-20x8_7-15x8_8-2x8_9-8x8_10-5x9_1-15x9_2-13x9_3-14x9_4-13x9_5-17x9_6-3x9_7-4x9_8-12x9_9-3x9_10-6x10_1-16x10_2-17x10_3-3x10_4-11x10_5-8x10_6-2x10_7-13x10_8-2x10_9-5x10_10 - z5 = 0
BOUNDS
z1 free
z2 free
z3 free
z4 free
z5 free
BINARIES
x1_1
x1_2
x1_3
x1_4
x1_5
x1_6
x1_7
x1_8
x1_9
x1_10
x2_1
x2_2
x2_3
x2_4
x2_5
x2_6
x2_7
x2_8
x2_9
x2_10
x3_1
x3_2
x3_3
x3_4
x3_5
x3_6
x3_7
x3_8
x3_9
x3_10
x4_1
x4_2
x4_3
x4_4
x4_5
x4_6
x4_7
x4_8
x4_9
x4_10
x5_1
x5_2
x5_3
x5_4
x5_5
x5_6
x5_7
x5_8
x5_9
x5_10
x6_1
x6_2
x6_3
x6_4
x6_5
x6_6
x6_7
x6_8
x6_9
x6_10
x7_1
x7_2
x7_3
x7_4
x7_5
x7_6
x7_7
x7_8
x7_9
x7_10
x8_1
x8_2
x8_3
x8_4
x8_5
x8_6
x8_7
x8_8
x8_9
x8_10
x9_1
x9_2
x9_3
x9_4
x9_5
x9_6
x9_7
x9_8
x9_9
x9_10
x10_1
x10_2
x10_3
x10_4
x10_5
x10_6
x10_7
x10_8
x10_9
x10_10
END